p cnf 263 1361
81 84 121 0
78 96 97 103 105 0
83 106 138 143 0
52 93 100 0
70 77 112 0
63 73 75 163 0
41 108 0
36 64 167 171 174 0
88 110 113 127 0
114 122 132 136 0
68 98 126 215 0
131 135 139 145 0
27 187 190 0
91 118 119 252 0
142 147 0
66 102 148 0
86 109 120 0
14 16 57 60 61 0
30 80 125 0
47 51 54 55 0
42 45 0
40 107 141 0
37 39 101 0
35 65 87 0
32 34 89 0
28 31 82 0
25 26 49 92 0
24 43 117 0
20 23 71 74 94 0
18 19 38 0
33 85 115 123 0
17 59 62 0
13 15 0
29 79 104 129 134 0
11 53 56 0
8 10 0
7 22 69 76 150 0
152 153 0
154 155 156 159 0
161 162 164 0
165 166 168 172 175 0
99 128 0
133 137 140 146 176 177 0
169 179 180 231 249 0
144 181 183 185 0
44 186 188 191 0
21 194 0
-58 -78 0
-58 -195 0
-52 -58 0
-58 -197 0
-46 -58 0
-78 -195 0
-52 -78 0
-78 -197 0
-46 -78 0
-52 -195 0
-195 -197 0
-46 -195 0
-52 -197 0
-46 -52 0
-46 -197 0
-108 -199 0
-108 -113 0
-108 -114 0
-108 -178 0
-68 -108 0
-113 -199 0
-114 -199 0
-178 -199 0
-68 -199 0
-113 -114 0
-113 -178 0
-68 -113 0
-114 -178 0
-68 -114 0
-68 -178 0
-60 -116 0
-116 -130 0
-116 -200 0
-54 -116 0
-116 -202 0
-60 -130 0
-60 -200 0
-54 -60 0
-60 -202 0
-130 -200 0
-54 -130 0
-130 -202 0
-54 -200 0
-200 -202 0
-54 -202 0
-26 -204 0
-117 -204 0
-204 -205 0
-94 -204 0
-204 -206 0
-26 -117 0
-26 -205 0
-26 -94 0
-26 -206 0
-117 -205 0
-94 -117 0
-117 -206 0
-94 -205 0
-205 -206 0
-94 -206 0
-85 -208 0
-15 -208 0
-104 -208 0
-208 -209 0
-11 -208 0
-15 -85 0
-85 -104 0
-85 -209 0
-11 -85 0
-15 -104 0
-15 -209 0
-11 -15 0
-104 -209 0
-11 -104 0
-11 -209 0
-10 -76 0
-10 -152 0
-10 -154 0
-10 -161 0
-10 -211 0
-76 -152 0
-76 -154 0
-76 -161 0
-76 -211 0
-152 -154 0
-152 -161 0
-152 -211 0
-154 -161 0
-154 -211 0
-161 -211 0
-58 -108 0
-58 -116 0
-58 -204 0
-58 -208 0
-10 -58 0
-108 -116 0
-108 -204 0
-108 -208 0
-10 -108 0
-116 -204 0
-116 -208 0
-10 -116 0
-204 -208 0
-10 -204 0
-10 -208 0
-78 -199 0
-60 -78 0
-26 -78 0
-78 -85 0
-76 -78 0
-60 -199 0
-26 -199 0
-85 -199 0
-76 -199 0
-26 -60 0
-60 -85 0
-60 -76 0
-26 -85 0
-26 -76 0
-76 -85 0
-113 -195 0
-130 -195 0
-117 -195 0
-15 -195 0
-152 -195 0
-113 -130 0
-113 -117 0
-15 -113 0
-113 -152 0
-117 -130 0
-15 -130 0
-130 -152 0
-15 -117 0
-117 -152 0
-15 -152 0
-52 -114 0
-52 -200 0
-52 -205 0
-52 -104 0
-52 -154 0
-114 -200 0
-114 -205 0
-104 -114 0
-114 -154 0
-200 -205 0
-104 -200 0
-154 -200 0
-104 -205 0
-154 -205 0
-104 -154 0
-178 -197 0
-54 -197 0
-94 -197 0
-197 -209 0
-161 -197 0
-54 -178 0
-94 -178 0
-178 -209 0
-161 -178 0
-54 -94 0
-54 -209 0
-54 -161 0
-94 -209 0
-94 -161 0
-161 -209 0
-46 -68 0
-46 -202 0
-46 -206 0
-11 -46 0
-46 -211 0
-68 -202 0
-68 -206 0
-11 -68 0
-68 -211 0
-202 -206 0
-11 -202 0
-202 -211 0
-11 -206 0
-206 -211 0
-11 -211 0
-39 -212 0
-35 -212 0
-34 -212 0
-35 -39 0
-34 -39 0
-34 -35 0
-31 -214 0
-31 -192 0
-23 -31 0
-192 -214 0
-23 -214 0
-23 -192 0
-17 -149 0
-79 -149 0
-149 -217 0
-17 -79 0
-17 -217 0
-79 -217 0
-165 -179 0
-165 -181 0
-165 -186 0
-179 -181 0
-179 -186 0
-181 -186 0
-31 -212 0
-149 -212 0
-165 -212 0
-31 -149 0
-31 -165 0
-149 -165 0
-39 -214 0
-17 -39 0
-39 -179 0
-17 -214 0
-179 -214 0
-17 -179 0
-35 -192 0
-35 -79 0
-35 -181 0
-79 -192 0
-181 -192 0
-79 -181 0
-23 -34 0
-34 -217 0
-34 -186 0
-23 -217 0
-23 -186 0
-186 -217 0
-81 -96 0
-81 -83 0
-81 -218 0
-81 -93 0
-81 -219 0
-81 -220 0
-81 -112 0
-83 -96 0
-96 -218 0
-93 -96 0
-96 -219 0
-96 -220 0
-96 -112 0
-83 -218 0
-83 -93 0
-83 -219 0
-83 -220 0
-83 -112 0
-93 -218 0
-218 -219 0
-218 -220 0
-112 -218 0
-93 -219 0
-93 -220 0
-93 -112 0
-219 -220 0
-112 -219 0
-112 -220 0
-75 -221 0
-75 -167 0
-75 -127 0
-75 -132 0
-75 -170 0
-75 -126 0
-75 -131 0
-167 -221 0
-127 -221 0
-132 -221 0
-170 -221 0
-126 -221 0
-131 -221 0
-127 -167 0
-132 -167 0
-167 -170 0
-126 -167 0
-131 -167 0
-127 -132 0
-127 -170 0
-126 -127 0
-127 -131 0
-132 -170 0
-126 -132 0
-131 -132 0
-126 -170 0
-131 -170 0
-126 -131 0
-91 -187 0
-187 -189 0
-187 -222 0
-187 -223 0
-142 -187 0
-102 -187 0
-187 -224 0
-91 -189 0
-91 -222 0
-91 -223 0
-91 -142 0
-91 -102 0
-91 -224 0
-189 -222 0
-189 -223 0
-142 -189 0
-102 -189 0
-189 -224 0
-222 -223 0
-142 -222 0
-102 -222 0
-222 -224 0
-142 -223 0
-102 -223 0
-223 -224 0
-102 -142 0
-142 -224 0
-102 -224 0
-107 -225 0
-37 -225 0
-225 -226 0
-65 -225 0
-89 -225 0
-225 -227 0
-225 -230 0
-37 -107 0
-107 -226 0
-65 -107 0
-89 -107 0
-107 -227 0
-107 -230 0
-37 -226 0
-37 -65 0
-37 -89 0
-37 -227 0
-37 -230 0
-65 -226 0
-89 -226 0
-226 -227 0
-226 -230 0
-65 -89 0
-65 -227 0
-65 -230 0
-89 -227 0
-89 -230 0
-227 -230 0
-25 -28 0
-28 -233 0
-24 -28 0
-28 -234 0
-20 -28 0
-28 -235 0
-28 -38 0
-25 -233 0
-24 -25 0
-25 -234 0
-20 -25 0
-25 -235 0
-25 -38 0
-24 -233 0
-233 -234 0
-20 -233 0
-233 -235 0
-38 -233 0
-24 -234 0
-20 -24 0
-24 -235 0
-24 -38 0
-20 -234 0
-234 -235 0
-38 -234 0
-20 -235 0
-20 -38 0
-38 -235 0
-33 -236 0
-62 -236 0
-13 -236 0
-29 -236 0
-236 -237 0
-56 -236 0
-48 -236 0
-33 -62 0
-13 -33 0
-29 -33 0
-33 -237 0
-33 -56 0
-33 -48 0
-13 -62 0
-29 -62 0
-62 -237 0
-56 -62 0
-48 -62 0
-13 -29 0
-13 -237 0
-13 -56 0
-13 -48 0
-29 -237 0
-29 -56 0
-29 -48 0
-56 -237 0
-48 -237 0
-48 -56 0
-22 -239 0
-239 -240 0
-153 -239 0
-155 -239 0
-162 -239 0
-239 -241 0
-239 -242 0
-22 -240 0
-22 -153 0
-22 -155 0
-22 -162 0
-22 -241 0
-22 -242 0
-153 -240 0
-155 -240 0
-162 -240 0
-240 -241 0
-240 -242 0
-153 -155 0
-153 -162 0
-153 -241 0
-153 -242 0
-155 -162 0
-155 -241 0
-155 -242 0
-162 -241 0
-162 -242 0
-241 -242 0
-166 -176 0
-166 -180 0
-50 -166 0
-166 -183 0
-44 -166 0
-166 -194 0
-72 -166 0
-176 -180 0
-50 -176 0
-176 -183 0
-44 -176 0
-176 -194 0
-72 -176 0
-50 -180 0
-180 -183 0
-44 -180 0
-180 -194 0
-72 -180 0
-50 -183 0
-44 -50 0
-50 -194 0
-50 -72 0
-44 -183 0
-183 -194 0
-72 -183 0
-44 -194 0
-44 -72 0
-72 -194 0
-75 -81 0
-81 -187 0
-81 -225 0
-28 -81 0
-81 -236 0
-81 -239 0
-81 -166 0
-75 -187 0
-75 -225 0
-28 -75 0
-75 -236 0
-75 -239 0
-75 -166 0
-187 -225 0
-28 -187 0
-187 -236 0
-187 -239 0
-166 -187 0
-28 -225 0
-225 -236 0
-225 -239 0
-166 -225 0
-28 -236 0
-28 -239 0
-28 -166 0
-236 -239 0
-166 -236 0
-166 -239 0
-96 -221 0
-91 -96 0
-96 -107 0
-25 -96 0
-33 -96 0
-22 -96 0
-96 -176 0
-91 -221 0
-107 -221 0
-25 -221 0
-33 -221 0
-22 -221 0
-176 -221 0
-91 -107 0
-25 -91 0
-33 -91 0
-22 -91 0
-91 -176 0
-25 -107 0
-33 -107 0
-22 -107 0
-107 -176 0
-25 -33 0
-22 -25 0
-25 -176 0
-22 -33 0
-33 -176 0
-22 -176 0
-83 -167 0
-83 -189 0
-37 -83 0
-83 -233 0
-62 -83 0
-83 -240 0
-83 -180 0
-167 -189 0
-37 -167 0
-167 -233 0
-62 -167 0
-167 -240 0
-167 -180 0
-37 -189 0
-189 -233 0
-62 -189 0
-189 -240 0
-180 -189 0
-37 -233 0
-37 -62 0
-37 -240 0
-37 -180 0
-62 -233 0
-233 -240 0
-180 -233 0
-62 -240 0
-62 -180 0
-180 -240 0
-127 -218 0
-218 -222 0
-218 -226 0
-24 -218 0
-13 -218 0
-153 -218 0
-50 -218 0
-127 -222 0
-127 -226 0
-24 -127 0
-13 -127 0
-127 -153 0
-50 -127 0
-222 -226 0
-24 -222 0
-13 -222 0
-153 -222 0
-50 -222 0
-24 -226 0
-13 -226 0
-153 -226 0
-50 -226 0
-13 -24 0
-24 -153 0
-24 -50 0
-13 -153 0
-13 -50 0
-50 -153 0
-93 -132 0
-93 -223 0
-65 -93 0
-93 -234 0
-29 -93 0
-93 -155 0
-93 -183 0
-132 -223 0
-65 -132 0
-132 -234 0
-29 -132 0
-132 -155 0
-132 -183 0
-65 -223 0
-223 -234 0
-29 -223 0
-155 -223 0
-183 -223 0
-65 -234 0
-29 -65 0
-65 -155 0
-65 -183 0
-29 -234 0
-155 -234 0
-183 -234 0
-29 -155 0
-29 -183 0
-155 -183 0
-170 -219 0
-142 -219 0
-89 -219 0
-20 -219 0
-219 -237 0
-162 -219 0
-44 -219 0
-142 -170 0
-89 -170 0
-20 -170 0
-170 -237 0
-162 -170 0
-44 -170 0
-89 -142 0
-20 -142 0
-142 -237 0
-142 -162 0
-44 -142 0
-20 -89 0
-89 -237 0
-89 -162 0
-44 -89 0
-20 -237 0
-20 -162 0
-20 -44 0
-162 -237 0
-44 -237 0
-44 -162 0
-126 -220 0
-102 -220 0
-220 -227 0
-220 -235 0
-56 -220 0
-220 -241 0
-194 -220 0
-102 -126 0
-126 -227 0
-126 -235 0
-56 -126 0
-126 -241 0
-126 -194 0
-102 -227 0
-102 -235 0
-56 -102 0
-102 -241 0
-102 -194 0
-227 -235 0
-56 -227 0
-227 -241 0
-194 -227 0
-56 -235 0
-235 -241 0
-194 -235 0
-56 -241 0
-56 -194 0
-194 -241 0
-112 -131 0
-112 -224 0
-112 -230 0
-38 -112 0
-48 -112 0
-112 -242 0
-72 -112 0
-131 -224 0
-131 -230 0
-38 -131 0
-48 -131 0
-131 -242 0
-72 -131 0
-224 -230 0
-38 -224 0
-48 -224 0
-224 -242 0
-72 -224 0
-38 -230 0
-48 -230 0
-230 -242 0
-72 -230 0
-38 -48 0
-38 -242 0
-38 -72 0
-48 -242 0
-48 -72 0
-72 -242 0
-121 -243 0
-103 -121 0
-106 -121 0
-121 -244 0
-103 -243 0
-106 -243 0
-243 -244 0
-103 -106 0
-103 -244 0
-106 -244 0
-41 -73 0
-73 -245 0
-73 -171 0
-73 -173 0
-41 -245 0
-41 -171 0
-41 -173 0
-171 -245 0
-173 -245 0
-171 -173 0
-120 -124 0
-61 -120 0
-120 -125 0
-55 -120 0
-61 -124 0
-124 -125 0
-55 -124 0
-61 -125 0
-55 -61 0
-55 -125 0
-9 -151 0
-9 -141 0
-9 -101 0
-9 -32 0
-141 -151 0
-101 -151 0
-32 -151 0
-101 -141 0
-32 -141 0
-32 -101 0
-128 -168 0
-133 -168 0
-168 -169 0
-168 -188 0
-128 -133 0
-128 -169 0
-128 -188 0
-133 -169 0
-133 -188 0
-169 -188 0
-73 -121 0
-120 -121 0
-9 -121 0
-121 -168 0
-73 -120 0
-9 -73 0
-73 -168 0
-9 -120 0
-120 -168 0
-9 -168 0
-41 -243 0
-124 -243 0
-151 -243 0
-128 -243 0
-41 -124 0
-41 -151 0
-41 -128 0
-124 -151 0
-124 -128 0
-128 -151 0
-103 -245 0
-61 -103 0
-103 -141 0
-103 -133 0
-61 -245 0
-141 -245 0
-133 -245 0
-61 -141 0
-61 -133 0
-133 -141 0
-106 -171 0
-106 -125 0
-101 -106 0
-106 -169 0
-125 -171 0
-101 -171 0
-169 -171 0
-101 -125 0
-125 -169 0
-101 -169 0
-173 -244 0
-55 -244 0
-32 -244 0
-188 -244 0
-55 -173 0
-32 -173 0
-173 -188 0
-32 -55 0
-55 -188 0
-32 -188 0
-158 -163 0
-110 -163 0
-122 -163 0
-110 -158 0
-122 -158 0
-110 -122 0
-27 -118 0
-27 -95 0
-27 -207 0
-95 -118 0
-118 -207 0
-95 -207 0
-16 -86 0
-86 -210 0
-12 -86 0
-16 -210 0
-12 -16 0
-12 -210 0
-172 -177 0
-172 -246 0
-172 -185 0
-177 -246 0
-177 -185 0
-185 -246 0
-27 -163 0
-86 -163 0
-163 -172 0
-27 -86 0
-27 -172 0
-86 -172 0
-118 -158 0
-16 -158 0
-158 -177 0
-16 -118 0
-118 -177 0
-16 -177 0
-95 -110 0
-110 -210 0
-110 -246 0
-95 -210 0
-95 -246 0
-210 -246 0
-122 -207 0
-12 -122 0
-122 -185 0
-12 -207 0
-185 -207 0
-12 -185 0
-84 -105 0
-84 -138 0
-84 -100 0
-84 -247 0
-84 -213 0
-77 -84 0
-105 -138 0
-100 -105 0
-105 -247 0
-105 -213 0
-77 -105 0
-100 -138 0
-138 -247 0
-138 -213 0
-77 -138 0
-100 -247 0
-100 -213 0
-77 -100 0
-213 -247 0
-77 -247 0
-77 -213 0
-63 -248 0
-36 -63 0
-63 -136 0
-63 -250 0
-63 -215 0
-63 -135 0
-36 -248 0
-136 -248 0
-248 -250 0
-215 -248 0
-135 -248 0
-36 -136 0
-36 -250 0
-36 -215 0
-36 -135 0
-136 -250 0
-136 -215 0
-135 -136 0
-215 -250 0
-135 -250 0
-135 -215 0
-190 -252 0
-190 -193 0
-190 -251 0
-147 -190 0
-148 -190 0
-190 -254 0
-193 -252 0
-251 -252 0
-147 -252 0
-148 -252 0
-252 -254 0
-193 -251 0
-147 -193 0
-148 -193 0
-193 -254 0
-147 -251 0
-148 -251 0
-251 -254 0
-147 -148 0
-147 -254 0
-148 -254 0
-57 -109 0
-80 -109 0
-109 -196 0
-51 -109 0
-109 -198 0
-45 -109 0
-57 -80 0
-57 -196 0
-51 -57 0
-57 -198 0
-45 -57 0
-80 -196 0
-51 -80 0
-80 -198 0
-45 -80 0
-51 -196 0
-196 -198 0
-45 -196 0
-51 -198 0
-45 -51 0
-45 -198 0
-82 -92 0
-82 -182 0
-82 -255 0
-74 -82 0
-82 -256 0
-19 -82 0
-92 -182 0
-92 -255 0
-74 -92 0
-92 -256 0
-19 -92 0
-182 -255 0
-74 -182 0
-182 -256 0
-19 -182 0
-74 -255 0
-255 -256 0
-19 -255 0
-74 -256 0
-19 -74 0
-19 -256 0
-115 -257 0
-59 -257 0
-129 -257 0
-201 -257 0
-53 -257 0
-203 -257 0
-59 -115 0
-115 -129 0
-115 -201 0
-53 -115 0
-115 -203 0
-59 -129 0
-59 -201 0
-53 -59 0
-59 -203 0
-129 -201 0
-53 -129 0
-129 -203 0
-53 -201 0
-201 -203 0
-53 -203 0
-7 -258 0
-67 -258 0
-156 -258 0
-164 -258 0
-111 -258 0
-157 -258 0
-7 -67 0
-7 -156 0
-7 -164 0
-7 -111 0
-7 -157 0
-67 -156 0
-67 -164 0
-67 -111 0
-67 -157 0
-156 -164 0
-111 -156 0
-156 -157 0
-111 -164 0
-157 -164 0
-111 -157 0
-63 -84 0
-84 -190 0
-84 -109 0
-82 -84 0
-84 -257 0
-84 -258 0
-63 -190 0
-63 -109 0
-63 -82 0
-63 -257 0
-63 -258 0
-109 -190 0
-82 -190 0
-190 -257 0
-190 -258 0
-82 -109 0
-109 -257 0
-109 -258 0
-82 -257 0
-82 -258 0
-257 -258 0
-105 -248 0
-105 -252 0
-57 -105 0
-92 -105 0
-105 -115 0
-7 -105 0
-248 -252 0
-57 -248 0
-92 -248 0
-115 -248 0
-7 -248 0
-57 -252 0
-92 -252 0
-115 -252 0
-7 -252 0
-57 -92 0
-57 -115 0
-7 -57 0
-92 -115 0
-7 -92 0
-7 -115 0
-36 -138 0
-138 -193 0
-80 -138 0
-138 -182 0
-59 -138 0
-67 -138 0
-36 -193 0
-36 -80 0
-36 -182 0
-36 -59 0
-36 -67 0
-80 -193 0
-182 -193 0
-59 -193 0
-67 -193 0
-80 -182 0
-59 -80 0
-67 -80 0
-59 -182 0
-67 -182 0
-59 -67 0
-100 -136 0
-100 -251 0
-100 -196 0
-100 -255 0
-100 -129 0
-100 -156 0
-136 -251 0
-136 -196 0
-136 -255 0
-129 -136 0
-136 -156 0
-196 -251 0
-251 -255 0
-129 -251 0
-156 -251 0
-196 -255 0
-129 -196 0
-156 -196 0
-129 -255 0
-156 -255 0
-129 -156 0
-247 -250 0
-147 -247 0
-51 -247 0
-74 -247 0
-201 -247 0
-164 -247 0
-147 -250 0
-51 -250 0
-74 -250 0
-201 -250 0
-164 -250 0
-51 -147 0
-74 -147 0
-147 -201 0
-147 -164 0
-51 -74 0
-51 -201 0
-51 -164 0
-74 -201 0
-74 -164 0
-164 -201 0
-213 -215 0
-148 -213 0
-198 -213 0
-213 -256 0
-53 -213 0
-111 -213 0
-148 -215 0
-198 -215 0
-215 -256 0
-53 -215 0
-111 -215 0
-148 -198 0
-148 -256 0
-53 -148 0
-111 -148 0
-198 -256 0
-53 -198 0
-111 -198 0
-53 -256 0
-111 -256 0
-53 -111 0
-77 -135 0
-77 -254 0
-45 -77 0
-19 -77 0
-77 -203 0
-77 -157 0
-135 -254 0
-45 -135 0
-19 -135 0
-135 -203 0
-135 -157 0
-45 -254 0
-19 -254 0
-203 -254 0
-157 -254 0
-19 -45 0
-45 -203 0
-45 -157 0
-19 -203 0
-19 -157 0
-157 -203 0
-97 -143 0
-97 -259 0
-97 -261 0
-70 -97 0
-143 -259 0
-143 -261 0
-70 -143 0
-259 -261 0
-70 -259 0
-70 -261 0
-64 -228 0
-88 -228 0
-228 -232 0
-139 -228 0
-64 -88 0
-64 -232 0
-64 -139 0
-88 -232 0
-88 -139 0
-139 -232 0
-14 -30 0
-14 -238 0
-14 -47 0
-14 -42 0
-30 -238 0
-30 -47 0
-30 -42 0
-47 -238 0
-42 -238 0
-42 -47 0
-49 -184 0
-43 -49 0
-49 -71 0
-18 -49 0
-43 -184 0
-71 -184 0
-18 -184 0
-43 -71 0
-18 -43 0
-18 -71 0
-137 -249 0
-137 -216 0
-137 -191 0
-137 -253 0
-216 -249 0
-191 -249 0
-249 -253 0
-191 -216 0
-216 -253 0
-191 -253 0
-97 -228 0
-14 -97 0
-49 -97 0
-97 -137 0
-14 -228 0
-49 -228 0
-137 -228 0
-14 -49 0
-14 -137 0
-49 -137 0
-64 -143 0
-30 -143 0
-143 -184 0
-143 -249 0
-30 -64 0
-64 -184 0
-64 -249 0
-30 -184 0
-30 -249 0
-184 -249 0
-88 -259 0
-238 -259 0
-43 -259 0
-216 -259 0
-88 -238 0
-43 -88 0
-88 -216 0
-43 -238 0
-216 -238 0
-43 -216 0
-232 -261 0
-47 -261 0
-71 -261 0
-191 -261 0
-47 -232 0
-71 -232 0
-191 -232 0
-47 -71 0
-47 -191 0
-71 -191 0
-70 -139 0
-42 -70 0
-18 -70 0
-70 -253 0
-42 -139 0
-18 -139 0
-139 -253 0
-18 -42 0
-42 -253 0
-18 -253 0
-160 -174 0
-98 -160 0
-145 -160 0
-98 -174 0
-145 -174 0
-98 -145 0
-119 -262 0
-66 -119 0
-119 -263 0
-66 -262 0
-262 -263 0
-66 -263 0
-69 -260 0
-69 -90 0
-69 -229 0
-90 -260 0
-229 -260 0
-90 -229 0
-140 -231 0
-21 -140 0
-6 -140 0
-21 -231 0
-6 -231 0
-6 -21 0
-119 -160 0
-69 -160 0
-140 -160 0
-69 -119 0
-119 -140 0
-69 -140 0
-174 -262 0
-174 -260 0
-174 -231 0
-260 -262 0
-231 -262 0
-231 -260 0
-66 -98 0
-90 -98 0
-21 -98 0
-66 -90 0
-21 -66 0
-21 -90 0
-145 -263 0
-145 -229 0
-6 -145 0
-229 -263 0
-6 -263 0
-6 -229 0
-4 -5 0
-5 -40 0
-5 -87 0
-4 -40 0
-4 -87 0
-40 -87 0
-2 -3 0
-3 -123 0
-3 -134 0
-2 -123 0
-2 -134 0
-123 -134 0
-1 -8 0
-1 -150 0
-1 -159 0
-8 -150 0
-8 -159 0
-150 -159 0
-99 -175 0
-146 -175 0
-144 -175 0
-99 -146 0
-99 -144 0
-144 -146 0
-3 -5 0
-1 -5 0
-5 -175 0
-1 -3 0
-3 -175 0
-1 -175 0
-2 -4 0
-4 -8 0
-4 -99 0
-2 -8 0
-2 -99 0
-8 -99 0
-40 -123 0
-40 -150 0
-40 -146 0
-123 -150 0
-123 -146 0
-146 -150 0
-87 -134 0
-87 -159 0
-87 -144 0
-134 -159 0
-134 -144 0
-144 -159 0
